p cnf 115 468
1 2 3 4 5 0
-1 -2 0
-1 -3 0
-2 -3 0
-1 26 0
-2 26 0
-3 26 0
-26 -4 0
-26 -5 0
-4 -5 0
6 7 8 9 10 0
-6 -7 0
-6 -8 0
-7 -8 0
-6 27 0
-7 27 0
-8 27 0
-27 -9 0
-27 -10 0
-9 -10 0
11 12 13 14 15 0
-11 -12 0
-11 -13 0
-12 -13 0
-11 28 0
-12 28 0
-13 28 0
-28 -14 0
-28 -15 0
-14 -15 0
16 17 18 19 20 0
-16 -17 0
-16 -18 0
-17 -18 0
-16 29 0
-17 29 0
-18 29 0
-29 -19 0
-29 -20 0
-19 -20 0
21 22 23 24 25 0
-21 -22 0
-21 -23 0
-22 -23 0
-21 30 0
-22 30 0
-23 30 0
-30 -24 0
-30 -25 0
-24 -25 0
1 6 11 16 21 0
-1 -6 0
-1 -11 0
-6 -11 0
-1 31 0
-6 31 0
-11 31 0
-31 -16 0
-31 -21 0
-16 -21 0
2 7 12 17 22 0
-2 -7 0
-2 -12 0
-7 -12 0
-2 32 0
-7 32 0
-12 32 0
-32 -17 0
-32 -22 0
-17 -22 0
3 8 13 18 23 0
-3 -8 0
-3 -13 0
-8 -13 0
-3 33 0
-8 33 0
-13 33 0
-33 -18 0
-33 -23 0
-18 -23 0
4 9 14 19 24 0
-4 -9 0
-4 -14 0
-9 -14 0
-4 34 0
-9 34 0
-14 34 0
-34 -19 0
-34 -24 0
-19 -24 0
5 10 15 20 25 0
-5 -10 0
-5 -15 0
-10 -15 0
-5 35 0
-10 35 0
-15 35 0
-35 -20 0
-35 -25 0
-20 -25 0
-5 -6 36 0
-10 -11 36 0
-15 -16 36 0
-20 -21 36 0
-4 -6 37 0
-9 -11 37 0
-14 -16 37 0
-19 -21 37 0
-5 -7 38 0
-5 -7 -37 0
-10 -12 38 0
-10 -12 -37 0
-15 -17 38 0
-15 -17 -37 0
-20 -22 38 0
-20 -22 -37 0
-37 38 0
-3 -6 39 0
-8 -11 39 0
-13 -16 39 0
-18 -21 39 0
-4 -7 40 0
-4 -7 -39 0
-9 -12 40 0
-9 -12 -39 0
-14 -17 40 0
-14 -17 -39 0
-19 -22 40 0
-19 -22 -39 0
-5 -8 41 0
-5 -8 -40 0
-10 -13 41 0
-10 -13 -40 0
-15 -18 41 0
-15 -18 -40 0
-20 -23 41 0
-20 -23 -40 0
-39 40 0
-40 41 0
-2 -6 42 0
-7 -11 42 0
-12 -16 42 0
-17 -21 42 0
-3 -7 43 0
-3 -7 -42 0
-8 -12 43 0
-8 -12 -42 0
-13 -17 43 0
-13 -17 -42 0
-18 -22 43 0
-18 -22 -42 0
-4 -8 44 0
-4 -8 -43 0
-9 -13 44 0
-9 -13 -43 0
-14 -18 44 0
-14 -18 -43 0
-19 -23 44 0
-19 -23 -43 0
-5 -9 45 0
-5 -9 -44 0
-10 -14 45 0
-10 -14 -44 0
-15 -19 45 0
-15 -19 -44 0
-20 -24 45 0
-20 -24 -44 0
-42 43 0
-43 44 0
-44 45 0
-1 -7 46 0
-6 -12 46 0
-11 -17 46 0
-16 -22 46 0
-2 -8 47 0
-2 -8 -46 0
-7 -13 47 0
-7 -13 -46 0
-12 -18 47 0
-12 -18 -46 0
-17 -23 47 0
-17 -23 -46 0
-3 -9 48 0
-3 -9 -47 0
-8 -14 48 0
-8 -14 -47 0
-13 -19 48 0
-13 -19 -47 0
-18 -24 48 0
-18 -24 -47 0
-4 -10 49 0
-4 -10 -48 0
-9 -15 49 0
-9 -15 -48 0
-14 -20 49 0
-14 -20 -48 0
-19 -25 49 0
-19 -25 -48 0
-46 47 0
-47 48 0
-48 49 0
-1 -8 50 0
-6 -13 50 0
-11 -18 50 0
-16 -23 50 0
-2 -9 51 0
-2 -9 -50 0
-7 -14 51 0
-7 -14 -50 0
-12 -19 51 0
-12 -19 -50 0
-17 -24 51 0
-17 -24 -50 0
-3 -10 52 0
-3 -10 -51 0
-8 -15 52 0
-8 -15 -51 0
-13 -20 52 0
-13 -20 -51 0
-18 -25 52 0
-18 -25 -51 0
-50 51 0
-51 52 0
-1 -9 53 0
-6 -14 53 0
-11 -19 53 0
-16 -24 53 0
-2 -10 54 0
-2 -10 -53 0
-7 -15 54 0
-7 -15 -53 0
-12 -20 54 0
-12 -20 -53 0
-17 -25 54 0
-17 -25 -53 0
-53 54 0
-1 -10 55 0
-6 -15 55 0
-11 -20 55 0
-16 -25 55 0
-5 -11 56 0
-10 -16 56 0
-15 -21 56 0
-4 -11 57 0
-9 -16 57 0
-14 -21 57 0
-5 -12 58 0
-5 -12 -57 0
-10 -17 58 0
-10 -17 -57 0
-15 -22 58 0
-15 -22 -57 0
-57 58 0
-3 -11 59 0
-8 -16 59 0
-13 -21 59 0
-4 -12 60 0
-4 -12 -59 0
-9 -17 60 0
-9 -17 -59 0
-14 -22 60 0
-14 -22 -59 0
-5 -13 61 0
-5 -13 -60 0
-10 -18 61 0
-10 -18 -60 0
-15 -23 61 0
-15 -23 -60 0
-59 60 0
-60 61 0
-2 -11 62 0
-7 -16 62 0
-12 -21 62 0
-3 -12 63 0
-3 -12 -62 0
-8 -17 63 0
-8 -17 -62 0
-13 -22 63 0
-13 -22 -62 0
-4 -13 64 0
-4 -13 -63 0
-9 -18 64 0
-9 -18 -63 0
-14 -23 64 0
-14 -23 -63 0
-5 -14 65 0
-5 -14 -64 0
-10 -19 65 0
-10 -19 -64 0
-15 -24 65 0
-15 -24 -64 0
-62 63 0
-63 64 0
-64 65 0
-1 -12 66 0
-6 -17 66 0
-11 -22 66 0
-2 -13 67 0
-2 -13 -66 0
-7 -18 67 0
-7 -18 -66 0
-12 -23 67 0
-12 -23 -66 0
-3 -14 68 0
-3 -14 -67 0
-8 -19 68 0
-8 -19 -67 0
-13 -24 68 0
-13 -24 -67 0
-4 -15 69 0
-4 -15 -68 0
-9 -20 69 0
-9 -20 -68 0
-14 -25 69 0
-14 -25 -68 0
-66 67 0
-67 68 0
-68 69 0
-1 -13 70 0
-6 -18 70 0
-11 -23 70 0
-2 -14 71 0
-2 -14 -70 0
-7 -19 71 0
-7 -19 -70 0
-12 -24 71 0
-12 -24 -70 0
-3 -15 72 0
-3 -15 -71 0
-8 -20 72 0
-8 -20 -71 0
-13 -25 72 0
-13 -25 -71 0
-70 71 0
-71 72 0
-1 -14 73 0
-6 -19 73 0
-11 -24 73 0
-2 -15 74 0
-2 -15 -73 0
-7 -20 74 0
-7 -20 -73 0
-12 -25 74 0
-12 -25 -73 0
-73 74 0
-1 -15 75 0
-6 -20 75 0
-11 -25 75 0
-5 -16 76 0
-10 -21 76 0
-4 -16 77 0
-9 -21 77 0
-5 -17 78 0
-5 -17 -77 0
-10 -22 78 0
-10 -22 -77 0
-77 78 0
-3 -16 79 0
-8 -21 79 0
-4 -17 80 0
-4 -17 -79 0
-9 -22 80 0
-9 -22 -79 0
-5 -18 81 0
-5 -18 -80 0
-10 -23 81 0
-10 -23 -80 0
-79 80 0
-80 81 0
-2 -16 82 0
-7 -21 82 0
-3 -17 83 0
-3 -17 -82 0
-8 -22 83 0
-8 -22 -82 0
-4 -18 84 0
-4 -18 -83 0
-9 -23 84 0
-9 -23 -83 0
-5 -19 85 0
-5 -19 -84 0
-10 -24 85 0
-10 -24 -84 0
-82 83 0
-83 84 0
-84 85 0
-1 -17 86 0
-6 -22 86 0
-2 -18 87 0
-2 -18 -86 0
-7 -23 87 0
-7 -23 -86 0
-3 -19 88 0
-3 -19 -87 0
-8 -24 88 0
-8 -24 -87 0
-4 -20 89 0
-4 -20 -88 0
-9 -25 89 0
-9 -25 -88 0
-86 87 0
-87 88 0
-88 89 0
-1 -18 90 0
-6 -23 90 0
-2 -19 91 0
-2 -19 -90 0
-7 -24 91 0
-7 -24 -90 0
-3 -20 92 0
-3 -20 -91 0
-8 -25 92 0
-8 -25 -91 0
-90 91 0
-91 92 0
-1 -19 93 0
-6 -24 93 0
-2 -20 94 0
-2 -20 -93 0
-7 -25 94 0
-7 -25 -93 0
-93 94 0
-1 -20 95 0
-6 -25 95 0
-5 -21 96 0
-4 -21 97 0
-5 -22 98 0
-5 -22 -97 0
-97 98 0
-3 -21 99 0
-4 -22 100 0
-4 -22 -99 0
-5 -23 101 0
-5 -23 -100 0
-99 100 0
-100 101 0
-2 -21 102 0
-3 -22 103 0
-3 -22 -102 0
-4 -23 104 0
-4 -23 -103 0
-5 -24 105 0
-5 -24 -104 0
-102 103 0
-103 104 0
-104 105 0
-1 -22 106 0
-2 -23 107 0
-2 -23 -106 0
-3 -24 108 0
-3 -24 -107 0
-4 -25 109 0
-4 -25 -108 0
-106 107 0
-107 108 0
-108 109 0
-1 -23 110 0
-2 -24 111 0
-2 -24 -110 0
-3 -25 112 0
-3 -25 -111 0
-110 111 0
-111 112 0
-1 -24 113 0
-2 -25 114 0
-2 -25 -113 0
-113 114 0
-1 -25 115 0
